instances/p2/p2_4_13-2.dzn
Alphabet = {A,C,G,T};
ns = 4;
nc = 9;
neighbours = [| Null,Null,Null,Null,Null,Null,Null,Null,Null | I(G),I(T),I(C),I(G),I(A),I(A),I(T),I(A),I(G) | I(C),I(A),I(C),Null,Null,Null,Null,Null,Null | I(A),I(A),I(G),I(A),Null,Null,Null,Null,Null |];
