instances/p2/p2_4_13-2.txt
{
	"num_strings": 4,
	"alphabet": "ACGT",
	"strings": [
		"",
		"GTCGAATAG",
		"CAC",
		"AAGA"
	],
	"str_length":[0,9,3,4]
}